unsat
(:added-eqs                   2399006
 :arith-eq-adapter            4491
 :arith-bound-propagations-lp 164592
 :arith-conflicts             515
 :arith-diseq                 185601
 :arith-fixed-eqs             230890
 :arith-lower                 147235
 :arith-make-feasible         73594
 :arith-max-columns           1466
 :arith-max-rows              865
 :arith-offset-eqs            92959
 :arith-upper                 272720
 :binary-propagations         11818016
 :conflicts                   23140
 :decisions                   1531225
 :del-clause                  31759
 :elim-unconstrained          2
 :max-memory                  59.33
 :memory                      37.61
 :minimized-lits              223537
 :mk-bool-var                 25130
 :mk-clause                   35470
 :mk-clause-binary            65372
 :num-allocs                  571845978
 :num-checks                  1
 :propagations                15490537
 :restarts                    135
 :rlimit-count                46808756
 :time                        15.56
 :total-time                  15.77)
